sat
(:max-memory        21.98
 :memory            17.87
 :num-allocs        713563889
 :rlimit-count      6585127
 :sls-constraints   25188
 :sls-ddfw-flips    5010341.00
 :sls-ddfw-reinits  32
 :sls-ddfw-restarts 150
 :sls-ddfw-shifts   1048334.00
 :sls.euf-conflict  25188
 :time              13.65
 :total-time        13.64)
